************************************************************************
file with basedata            : md359_.bas
initial value random generator: 1406400898
************************************************************************
projects                      :  1
jobs (incl. supersource/sink ):  22
horizon                       :  166
RESOURCES
  - renewable                 :  2   R
  - nonrenewable              :  2   N
  - doubly constrained        :  0   D
************************************************************************
PROJECT INFORMATION:
pronr.  #jobs rel.date duedate tardcost  MPM-Time
    1     20      0       22       13       22
************************************************************************
PRECEDENCE RELATIONS:
jobnr.    #modes  #successors   successors
   1        1          3           2   3   4
   2        3          3           6   9  14
   3        3          2           5   8
   4        3          2           7  11
   5        3          3          12  17  19
   6        3          2          18  19
   7        3          2          14  16
   8        3          2           9  10
   9        3          2          15  16
  10        3          3          12  13  16
  11        3          2          15  17
  12        3          2          14  18
  13        3          1          17
  14        3          2          15  20
  15        3          1          21
  16        3          2          19  20
  17        3          2          18  21
  18        3          1          20
  19        3          1          22
  20        3          1          22
  21        3          1          22
  22        1          0        
************************************************************************
REQUESTS/DURATIONS:
jobnr. mode duration  R 1  R 2  N 1  N 2
------------------------------------------------------------------------
  1      1     0       0    0    0    0
  2      1     2       5   10    8    3
         2     3       5    9    6    2
         3     5       3    6    5    1
  3      1     2       8    7    8    9
         2     3       6    4    7    9
         3    10       5    2    7    9
  4      1     1      10    3    4    3
         2     5       9    2    4    3
         3     6       9    1    4    2
  5      1     4       4    4    7    6
         2     4       5    4    5    5
         3     9       2    4    3    3
  6      1     7       3    5    5    8
         2     8       3    4    5    7
         3    10       2    3    5    4
  7      1     1       2    7    5    6
         2     7       2    4    4    5
         3     8       2    3    3    5
  8      1     5       8    6    4    6
         2     8       6    4    4    6
         3    10       3    2    1    6
  9      1     4       4    9    4    5
         2     7       3    9    4    4
         3    10       2    9    4    4
 10      1     6       8   10   10    6
         2     6       9    9    8    7
         3     9       5    9    5    3
 11      1     1       5    8    3    3
         2     6       5    6    2    2
         3     9       5    4    2    2
 12      1     1       9    7    8    6
         2     2       7    6    7    4
         3     9       5    5    5    2
 13      1     1       7    9   10    6
         2     1       8    9    7    9
         3     4       4    8    6    6
 14      1     2       7    6   10    8
         2     4       6    5    8    7
         3     6       6    4    8    6
 15      1     3       4    8    9    8
         2     5       2    3    8    8
         3     7       1    2    8    6
 16      1     4       9    6    8    7
         2     4      10    5    8    8
         3    10       8    1    8    6
 17      1     3       7    7    8    9
         2     7       6    7    8    4
         3     9       2    4    8    3
 18      1     1       7    3    9    8
         2     8       5    3    9    5
         3    10       3    2    8    3
 19      1     1       9    6    4    6
         2     3       7    5    4    4
         3     7       7    3    3    4
 20      1     2       5    7    1    9
         2     5       5    5    1    9
         3     9       2    1    1    8
 21      1     3       9    8    7   10
         2     8       8    8    5   10
         3     9       7    7    5    9
 22      1     0       0    0    0    0
************************************************************************
RESOURCEAVAILABILITIES:
  R 1  R 2  N 1  N 2
   23   26  107  103
************************************************************************
MAXIMAL LAGS:
from  to  type  delay
    1   12   ES      0
    1    2   ES      0
    2   12   ES      0
    1    3   ES      0
    3   12   ES      0
    1    4   ES      0
    4   12   ES      0
    1    5   ES      0
    5   12   ES      0
    1    6   ES      0
    6   12   ES      0
    1    7   ES      0
    7   12   ES      0
    1    8   ES      0
    8   12   ES      0
    1    9   ES      0
    9   12   ES      0
    1   10   ES      0
   10   12   ES      0
    1   11   ES      0
   11   12   ES      0
    1   12   ES      0
    2    6   SS      0
    2    6   SE      9
    2    6   ES     -5
    2    6   EE     -1
    2    9   SS     -6
    2    9   SE      1
    2    9   ES      3
    2    9   EE     -5
    2   14   SS     -1
    2   14   SE      9
    2   14   ES     -1
    2   14   EE     10
    3    5   SS      4
    3    5   SE      7
    3    5   ES      1
    3    5   EE    -11
    3    8   SS      3
    3    8   SE    -11
    3    8   ES      2
    3    8   EE     -8
    4    7   SS     -8
    4    7   SE      5
    4    7   ES      5
    4    7   EE     -6
    4   11   SS     -4
    4   11   SE     12
    4   11   ES    -10
    4   11   EE     -6
    5   17   SS     -5
    5   17   SE     -1
    5   17   ES     -9
    5   17   EE     12
    5   19   SS     -6
    5   19   SE      7
    5   19   ES    -12
    5   19   EE    -10
    6   18   SS     -4
    6   18   SE     -6
    6   18   ES    -11
    6   18   EE      7
    6   19   SS      2
    6   19   SE     -3
    6   19   ES     -7
    6   19   EE      3
    7   14   SS      8
    7   14   SE     -3
    7   14   ES      7
    7   14   EE     -5
    7   16   SS      1
    7   16   SE      0
    7   16   ES      9
    7   16   EE     -5
    8    9   SS     -2
    8    9   SE      3
    8    9   ES     10
    8    9   EE     12
    8   10   SS     11
    8   10   SE      6
    8   10   ES      1
    8   10   EE      2
    9   15   SS     12
    9   15   SE    -10
    9   15   ES     10
    9   15   EE     -4
    9   16   SS      4
    9   16   SE    -12
    9   16   ES     -6
    9   16   EE     10
   10   13   SS     12
   10   13   SE      9
   10   13   ES    -12
   10   13   EE      9
   10   16   SS    -11
   10   16   SE      2
   10   16   ES      9
   10   16   EE     11
   11   15   SS     -5
   11   15   SE     -1
   11   15   ES     12
   11   15   EE      8
   11   17   SS      1
   11   17   SE     -1
   11   17   ES      5
   11   17   EE     -8
   12   14   SS      0
   12   14   SE    -12
   12   14   ES      4
   12   14   EE     -7
   12   18   SS     -2
   12   18   SE     -7
   12   18   ES      9
   12   18   EE      1
   13   17   SS     -5
   13   17   SE     11
   13   17   ES      3
   13   17   EE      6
   14   15   SS     -4
   14   15   SE     10
   14   15   ES     12
   14   15   EE    -10
   14   20   SS     -8
   14   20   SE      4
   14   20   ES     12
   14   20   EE      4
   15   21   SS      0
   15   21   SE      1
   15   21   ES      6
   15   21   EE     -9
   16   19   SS    -10
   16   19   SE     -8
   16   19   ES      9
   16   19   EE     -8
   16   20   SS     -6
   16   20   SE     -7
   16   20   ES    -10
   16   20   EE     -4
   17   18   SS      8
   17   18   SE      9
   17   18   ES     -7
   17   18   EE     -2
   17   21   SS     -7
   17   21   SE      0
   17   21   ES    -10
   17   21   EE     -9
   18   20   SS      6
   18   20   SE      3
   18   20   ES      8
   18   20   EE      5
   19   22   SS      6
   19   22   SE     -8
   19   22   ES     -2
   19   22   EE      7
   20   22   SS     -3
   20   22   SE      0
   20   22   ES     12
   20   22   EE     12
   21   22   SS     -2
   21   22   SE      2
   21   22   ES     -4
   21   22   EE      8
************************************************************************
